# traveling_salesman.dat
param n := 7;

param c: 1 2 3 4 5 6 7 :=
1  0 86 49 57 31 69 50
2  0  0 68 79 93 24  5
3  0  0  0 16  7 72 67
4  0  0  0  0 90 69  1
5  0  0  0  0  0 86 59
6  0  0  0  0  0  0 81
7  0  0  0  0  0  0  0;
